%nprocshared=5
%mem=4GB
#p opt freq=noraman b3lyp/6-31g scrf=(solvent=methyltertbutylether,pcm)
empiricaldispersion=gd3bj

Glutamic Acid Nickel Complex

1 3
 C                 -1.47904600   -0.04144700    0.23643600
 H                 -1.32640600    0.96056000   -0.19049600
 H                 -1.40211400    0.10257200    1.32912300
 C                 -0.36147500   -0.99255800   -0.21723100
 H                 -0.39306300   -1.12379500   -1.30744000
 H                 -0.50778100   -1.98122900    0.22719800
 C                  1.04100600   -0.48730700    0.18728800
 H                  1.04042500   -0.32898700    1.27196300
 C                  2.11282400   -1.53231500   -0.10339500
 C                 -2.82374900   -0.56328700   -0.15254000
 H                 -2.96742700   -1.54727500   -0.57698800
 O                  3.10116400   -1.37876600   -0.82733900
 O                  1.85954600   -2.69580600    0.57322700
 H                  2.54800900   -3.37466500    0.39933700
 N                  1.34185200    0.76520200   -0.48842800
 H                  0.90291300    0.92196300   -1.38774700
 C                  2.26479100    1.70245000   -0.11451100
 O                  2.48450300    2.70718700   -0.84002500
 C                  2.99040800    1.48312200    1.19226000
 H                  2.29197400    1.39715200    2.03161900
 H                  3.59195500    0.56871000    1.15883900
 H                  3.64988800    2.33271300    1.36748000
 N                 -3.91221500    0.17799000    0.01255700
 O                 -3.81459200    1.40229800    0.54849300
 O                 -5.11866900   -0.27766500   -0.34955900
 C                 -9.01894211    0.37493236   -2.12722562
 C                 -9.68559158    1.59111748   -2.13078903
 C                 -9.06781065    2.73554583   -1.56685345
 C                 -7.77514375    2.56560420   -1.02629619
 C                 -7.72548425    0.28672669   -1.57812207
 C                 -7.09410205    3.66900977   -0.42395478
 C                 -7.70757357    4.93876129   -0.36498763
 C                 -6.97655341    5.97863522    0.26242435
 H                 -7.40631489    6.97106343    0.32747565
 C                 -5.71977452    5.71849284    0.78818017
 C                 -5.16966702    4.42686450    0.68181689
 H                 -9.47518213   -0.51119848   -2.54701036
 H                -10.67656304    1.67498949   -2.56065539
 H                 -7.17394726   -0.64338221   -1.56876127
 H                 -5.14842343    6.49652835    1.27584774
 H                 -4.18865753    4.19267257    1.07189108
 N                 -7.12401934    1.35985859   -1.04719637
 N                 -5.84398608    3.43411351    0.08596720
 Ni                -5.30782680    1.58476429   -0.32154668
 H                 -9.47519080    3.61921196   -1.53125467
 H                 -8.59416263    5.04622455   -0.75293502

