%nprocshared=4
%mem=3GB
#p opt freq=noraman b3lyp/6-31g scrf=(solvent=water,pcm)
empiricaldispersion=gd3bj

Glutamic Acid Nitro-Anion

-1 1
 C                 -3.16976131    0.62334217    0.00000000
 H                 -2.81308847    1.12774036   -0.87365150
 H                 -4.23976131    0.62335535    0.00000000
 C                 -2.65641909    1.34929844    1.25740497
 H                 -1.58641909    1.34928512    1.25740471
 H                 -3.01309178    0.84489978    2.13105626
 C                 -3.16973511    2.80123048    1.25740516
 H                 -4.23973332    2.80124354    1.25544902
 C                 -2.65869262    3.52637339    2.51621545
 C                 -2.65644560   -0.82858999    0.00000000
 H                 -2.03993632   -1.17613258    0.80251508
 O                 -2.95985176    4.73118148    2.71946699
 O                 -1.83911388    2.82822404    3.45737334
 H                 -1.60674096    3.41729993    4.17889425
 N                 -2.67753409    3.49496525    0.05850140
 N                 -2.96804463   -1.62948587   -0.96688820
 O                 -2.51175341   -1.12005762   -2.14242262
 O                 -4.32003295   -1.76462098   -1.02576168
 H                 -3.39684552    4.08888460   -0.30184686
 C                 -1.50257877    4.30575035    0.40922569
 O                 -1.02543698    5.12208390   -0.42113918
 C                 -0.85335971    4.15561939    1.79759714
 H                 -1.36679980    4.77778355    2.50058435
 H                 -0.91620887    3.13485542    2.11222532
 H                  0.17401018    4.44990749    1.74462903

