%chk=C:\Users\Danny\Documents\Gaussian\NNMT\gjf\NS1_cyhex.chk
# hf/3-21g geom=connectivity

NS1.mol

0 1
 C                -28.55950000  -28.07210000    3.46470000
 C                -30.01980000  -28.49910000    3.28160000
 C                -30.16500000  -29.84470000    3.99600000
 C                -28.72520000  -30.14230000    4.39570000
 O                -28.09030000  -28.90800000    4.51150000
 N                -28.51390000  -30.98980000    5.63440000
 C                -27.55930000  -31.95570000    5.78530000
 C                -27.75410000  -32.46080000    7.05780000
 N                -28.79600000  -31.86960000    7.66340000
 C                -29.21690000  -30.99030000    6.78850000
 N                -26.61170000  -32.36250000    4.90470000
 C                -25.81450000  -33.30140000    5.43810000
 N                -25.87630000  -33.87270000    6.64890000
 C                -26.87260000  -33.47850000    7.48670000
 N                -26.99240000  -34.10030000    8.72650000
 O                -30.34260000  -28.50180000    1.90720000
 O                -30.76140000  -30.90950000    3.27990000
 C                -28.38340000  -26.58760000    3.82160000
 H                -28.21640000  -30.66950000    3.58340000
 H                -27.96880000  -28.32270000    2.58120000
 C                -29.08260000  -25.59660000    2.84250000
 C                -28.95920000  -24.21890000    3.33860000
 C                -28.66640000  -25.71290000    1.34750000
 C                -28.83140000  -23.08980000    3.77790000
 C                -28.61700000  -21.81270000    4.41800000
 C                -29.00610000  -20.61510000    3.81470000
 C                -28.81920000  -19.41190000    4.49690000
 C                -28.26240000  -19.40790000    5.77950000
 C                -27.87030000  -20.61420000    6.37400000
 C                -28.04850000  -21.81170000    5.68430000
 C                -27.30780000  -20.65320000    7.75400000
 N                -26.20810000  -21.38010000    7.92150000
 O                -27.86980000  -20.10090000    8.68780000
 C                -27.14910000  -25.81000000    1.11170000
 C                -26.67380000  -25.52370000   -0.33580000
 C                -26.42720000  -24.01450000   -0.60750000
 N                -25.32910000  -26.24360000   -0.51700000
 O                -25.27860000  -23.53210000   -0.50950000
 O                -27.40890000  -23.30720000   -0.90730000
 H                -30.68640000  -27.79720000    3.78770000
 H                -30.71850000  -29.68300000    4.91660000
 H                -30.04550000  -30.31270000    6.94070000
 H                -25.02100000  -33.65480000    4.79560000
 H                -26.49280000  -34.97160000    8.90050000
 H                -27.79440000  -33.85540000    9.28800000
 H                -29.77670000  -29.14870000    1.47530000
 H                -30.20240000  -31.18970000    2.53760000
 H                -28.76930000  -26.43080000    4.83160000
 H                -30.15910000  -25.76670000    2.88440000
 H                -29.12280000  -26.59300000    0.89910000
 H                -29.10050000  -24.89860000    0.77560000
 H                -29.45070000  -20.61590000    2.82850000
 H                -29.11700000  -18.48250000    4.03510000
 H                -28.14200000  -18.47030000    6.30320000
 H                -27.76900000  -22.75330000    6.14240000
 H                -25.83450000  -21.49850000    8.85000000
 H                -25.64170000  -21.67900000    7.13490000
 H                -26.60270000  -25.18370000    1.82310000
 H                -27.31010000  -25.98670000   -1.09290000
 H                -24.97650000  -26.10350000   -1.45550000
 H                -24.65970000  -25.88730000    0.15560000
 H                -25.44330000  -27.23670000   -0.35240000
 C                -26.86217341  -26.47346302    3.43520514
 H                -26.54223175  -26.57415681    4.45127507
 H                -26.68158840  -25.47286301    3.10190548
 C                -26.81411028  -27.06768495    1.96519224
 H                -27.33506965  -27.73735410    1.31323781
 H                -25.75969557  -27.21743119    1.86182076

 1 2 1.0 5 1.0 18 1.0 20 1.0
 2 3 1.0 16 1.0 40 1.0
 3 4 1.0 17 1.0 41 1.0
 4 5 1.0 6 1.0 19 1.0
 5
 6 7 1.0 10 1.0
 7 8 2.0 11 1.0
 8 9 1.0 14 1.0
 9 10 2.0
 10 42 1.0
 11 12 2.0
 12 13 1.0 43 1.0
 13 14 2.0
 14 15 1.0
 15 44 1.0 45 1.0
 16 46 1.0
 17 47 1.0
 18 21 1.0 48 1.0 63 1.0
 19
 20
 21 22 1.0 23 1.0 49 1.0
 22 24 3.0
 23 34 1.0 50 1.0 51 1.0
 24 25 1.0
 25 26 2.0 30 1.0
 26 27 1.0 52 1.0
 27 28 2.0 53 1.0
 28 29 1.0 54 1.0
 29 30 2.0 31 1.0
 30 55 1.0
 31 32 1.0 33 2.0
 32 56 1.0 57 1.0
 33
 34 35 1.0 58 1.0 66 1.0
 35 36 1.0 37 1.0 59 1.0
 36 38 1.0 39 2.0
 37 60 1.0 61 1.0 62 1.0
 38
 39
 40
 41
 42
 43
 44
 45
 46
 47
 48
 49
 50
 51
 52
 53
 54
 55
 56
 57
 58
 59
 60
 61
 62
 63 64 1.0 65 1.0 66 1.0
 64
 65
 66 67 1.0 68 1.0
 67
 68

